MATILDA_Graphs/g0095.col
c File: data_files/evolved_graphs/g0095.col
c
c Auto generated graph
c
p edge 100 2008
e 1 24
e 1 25
e 1 26
e 1 27
e 1 28
e 1 30
e 1 31
e 1 32
e 1 33
e 1 35
e 1 36
e 1 37
e 1 39
e 1 40
e 1 41
e 1 42
e 1 43
e 1 44
e 1 46
e 1 47
e 1 48
e 1 49
e 1 50
e 1 52
e 1 53
e 1 54
e 1 56
e 1 63
e 1 66
e 1 81
e 1 84
e 1 90
e 1 91
e 1 92
e 1 93
e 1 94
e 1 95
e 1 96
e 1 97
e 1 98
e 1 99
e 1 100
e 2 25
e 2 26
e 2 29
e 2 30
e 2 31
e 2 32
e 2 33
e 2 34
e 2 35
e 2 36
e 2 37
e 2 38
e 2 40
e 2 41
e 2 42
e 2 43
e 2 44
e 2 45
e 2 47
e 2 48
e 2 49
e 2 50
e 2 51
e 2 52
e 2 53
e 2 54
e 2 55
e 2 56
e 2 65
e 2 73
e 2 76
e 2 77
e 2 83
e 2 86
e 2 87
e 2 90
e 2 91
e 2 92
e 2 93
e 2 94
e 2 96
e 2 97
e 2 98
e 2 99
e 2 100
e 3 24
e 3 25
e 3 27
e 3 28
e 3 29
e 3 31
e 3 32
e 3 33
e 3 34
e 3 35
e 3 36
e 3 37
e 3 38
e 3 39
e 3 40
e 3 41
e 3 42
e 3 43
e 3 44
e 3 45
e 3 47
e 3 50
e 3 51
e 3 52
e 3 53
e 3 54
e 3 55
e 3 76
e 3 79
e 3 80
e 3 83
e 3 85
e 3 86
e 3 87
e 3 91
e 3 92
e 3 93
e 3 94
e 3 95
e 3 96
e 3 97
e 3 98
e 3 99
e 3 100
e 4 24
e 4 25
e 4 27
e 4 28
e 4 29
e 4 30
e 4 31
e 4 33
e 4 34
e 4 35
e 4 36
e 4 37
e 4 38
e 4 39
e 4 40
e 4 41
e 4 42
e 4 43
e 4 44
e 4 45
e 4 46
e 4 47
e 4 48
e 4 49
e 4 50
e 4 51
e 4 52
e 4 53
e 4 54
e 4 55
e 4 56
e 4 76
e 4 77
e 4 88
e 4 90
e 4 91
e 4 92
e 4 93
e 4 94
e 4 95
e 4 96
e 4 97
e 4 98
e 4 99
e 4 100
e 5 24
e 5 25
e 5 26
e 5 27
e 5 30
e 5 31
e 5 33
e 5 35
e 5 36
e 5 38
e 5 39
e 5 41
e 5 44
e 5 46
e 5 47
e 5 48
e 5 50
e 5 51
e 5 52
e 5 53
e 5 54
e 5 55
e 5 56
e 5 76
e 5 80
e 5 81
e 5 82
e 5 86
e 5 88
e 5 90
e 5 91
e 5 93
e 5 94
e 5 95
e 5 96
e 5 97
e 5 98
e 5 99
e 5 100
e 6 24
e 6 25
e 6 27
e 6 28
e 6 31
e 6 32
e 6 36
e 6 37
e 6 38
e 6 39
e 6 40
e 6 41
e 6 42
e 6 43
e 6 44
e 6 45
e 6 48
e 6 49
e 6 50
e 6 51
e 6 52
e 6 53
e 6 54
e 6 55
e 6 56
e 6 76
e 6 80
e 6 82
e 6 83
e 6 87
e 6 90
e 6 91
e 6 92
e 6 93
e 6 94
e 6 95
e 6 96
e 6 97
e 6 98
e 6 99
e 6 100
e 7 25
e 7 26
e 7 28
e 7 30
e 7 31
e 7 32
e 7 34
e 7 35
e 7 38
e 7 40
e 7 41
e 7 42
e 7 43
e 7 44
e 7 45
e 7 46
e 7 50
e 7 51
e 7 52
e 7 54
e 7 55
e 7 56
e 7 77
e 7 81
e 7 82
e 7 87
e 7 88
e 7 90
e 7 91
e 7 92
e 7 93
e 7 94
e 7 96
e 7 97
e 7 98
e 7 99
e 7 100
e 8 24
e 8 25
e 8 26
e 8 27
e 8 28
e 8 29
e 8 30
e 8 31
e 8 32
e 8 33
e 8 34
e 8 35
e 8 36
e 8 37
e 8 38
e 8 39
e 8 40
e 8 41
e 8 42
e 8 43
e 8 44
e 8 45
e 8 46
e 8 47
e 8 50
e 8 51
e 8 52
e 8 54
e 8 55
e 8 56
e 8 59
e 8 71
e 8 76
e 8 77
e 8 78
e 8 79
e 8 83
e 8 86
e 8 87
e 8 90
e 8 91
e 8 92
e 8 93
e 8 95
e 8 96
e 8 97
e 8 98
e 8 99
e 8 100
e 9 24
e 9 26
e 9 28
e 9 29
e 9 30
e 9 31
e 9 32
e 9 33
e 9 34
e 9 35
e 9 36
e 9 38
e 9 39
e 9 40
e 9 41
e 9 42
e 9 43
e 9 44
e 9 45
e 9 46
e 9 48
e 9 49
e 9 50
e 9 51
e 9 52
e 9 54
e 9 55
e 9 56
e 9 76
e 9 77
e 9 79
e 9 82
e 9 83
e 9 84
e 9 85
e 9 86
e 9 87
e 9 89
e 9 90
e 9 91
e 9 92
e 9 93
e 9 94
e 9 95
e 9 96
e 9 97
e 9 99
e 9 100
e 10 25
e 10 26
e 10 27
e 10 28
e 10 29
e 10 30
e 10 32
e 10 33
e 10 34
e 10 36
e 10 37
e 10 39
e 10 40
e 10 41
e 10 42
e 10 43
e 10 44
e 10 45
e 10 46
e 10 47
e 10 48
e 10 49
e 10 50
e 10 51
e 10 52
e 10 53
e 10 54
e 10 55
e 10 56
e 10 71
e 10 78
e 10 81
e 10 82
e 10 88
e 10 90
e 10 91
e 10 92
e 10 93
e 10 94
e 10 95
e 10 96
e 10 97
e 10 98
e 10 99
e 10 100
e 11 18
e 11 25
e 11 26
e 11 27
e 11 29
e 11 30
e 11 32
e 11 33
e 11 35
e 11 36
e 11 37
e 11 38
e 11 39
e 11 40
e 11 41
e 11 42
e 11 43
e 11 44
e 11 45
e 11 46
e 11 47
e 11 49
e 11 50
e 11 51
e 11 52
e 11 54
e 11 55
e 11 56
e 11 76
e 11 80
e 11 83
e 11 84
e 11 86
e 11 88
e 11 90
e 11 91
e 11 92
e 11 93
e 11 94
e 11 95
e 11 96
e 11 97
e 11 98
e 11 99
e 11 100
e 12 24
e 12 25
e 12 27
e 12 28
e 12 29
e 12 30
e 12 31
e 12 32
e 12 33
e 12 34
e 12 35
e 12 36
e 12 37
e 12 38
e 12 40
e 12 42
e 12 43
e 12 44
e 12 45
e 12 46
e 12 47
e 12 48
e 12 49
e 12 50
e 12 51
e 12 52
e 12 53
e 12 54
e 12 55
e 12 61
e 12 68
e 12 78
e 12 87
e 12 90
e 12 91
e 12 92
e 12 93
e 12 94
e 12 95
e 12 96
e 12 97
e 12 98
e 12 99
e 12 100
e 13 25
e 13 26
e 13 27
e 13 28
e 13 29
e 13 30
e 13 31
e 13 32
e 13 33
e 13 34
e 13 35
e 13 36
e 13 38
e 13 40
e 13 41
e 13 42
e 13 43
e 13 44
e 13 45
e 13 46
e 13 47
e 13 48
e 13 49
e 13 52
e 13 53
e 13 54
e 13 55
e 13 79
e 13 80
e 13 81
e 13 84
e 13 85
e 13 87
e 13 90
e 13 91
e 13 92
e 13 93
e 13 94
e 13 95
e 13 96
e 13 97
e 13 98
e 13 99
e 13 100
e 14 24
e 14 25
e 14 26
e 14 27
e 14 28
e 14 29
e 14 30
e 14 31
e 14 32
e 14 34
e 14 35
e 14 36
e 14 37
e 14 39
e 14 40
e 14 41
e 14 42
e 14 43
e 14 44
e 14 45
e 14 46
e 14 47
e 14 48
e 14 49
e 14 50
e 14 51
e 14 52
e 14 53
e 14 54
e 14 55
e 14 56
e 14 75
e 14 84
e 14 87
e 14 89
e 14 90
e 14 91
e 14 92
e 14 93
e 14 94
e 14 95
e 14 96
e 14 97
e 14 98
e 14 99
e 14 100
e 15 24
e 15 26
e 15 27
e 15 28
e 15 29
e 15 30
e 15 31
e 15 32
e 15 33
e 15 34
e 15 35
e 15 36
e 15 37
e 15 38
e 15 39
e 15 40
e 15 41
e 15 43
e 15 44
e 15 45
e 15 47
e 15 48
e 15 51
e 15 52
e 15 54
e 15 55
e 15 56
e 15 65
e 15 67
e 15 68
e 15 82
e 15 86
e 15 88
e 15 90
e 15 91
e 15 92
e 15 93
e 15 94
e 15 95
e 15 96
e 15 97
e 15 98
e 15 99
e 15 100
e 16 24
e 16 25
e 16 26
e 16 29
e 16 30
e 16 31
e 16 32
e 16 33
e 16 34
e 16 35
e 16 36
e 16 37
e 16 40
e 16 41
e 16 42
e 16 43
e 16 44
e 16 45
e 16 46
e 16 47
e 16 48
e 16 49
e 16 50
e 16 51
e 16 52
e 16 53
e 16 55
e 16 56
e 16 64
e 16 78
e 16 80
e 16 85
e 16 89
e 16 91
e 16 92
e 16 93
e 16 94
e 16 95
e 16 96
e 16 97
e 16 98
e 16 99
e 16 100
e 17 24
e 17 25
e 17 27
e 17 29
e 17 30
e 17 31
e 17 32
e 17 33
e 17 35
e 17 36
e 17 37
e 17 38
e 17 39
e 17 40
e 17 41
e 17 42
e 17 43
e 17 44
e 17 45
e 17 46
e 17 47
e 17 48
e 17 50
e 17 51
e 17 52
e 17 54
e 17 55
e 17 56
e 17 76
e 17 79
e 17 81
e 17 85
e 17 90
e 17 92
e 17 93
e 17 94
e 17 95
e 17 96
e 17 97
e 17 98
e 17 99
e 17 100
e 18 25
e 18 26
e 18 27
e 18 28
e 18 29
e 18 30
e 18 31
e 18 32
e 18 33
e 18 34
e 18 36
e 18 37
e 18 38
e 18 39
e 18 40
e 18 41
e 18 42
e 18 43
e 18 44
e 18 45
e 18 46
e 18 47
e 18 48
e 18 50
e 18 52
e 18 53
e 18 54
e 18 55
e 18 56
e 18 79
e 18 81
e 18 82
e 18 88
e 18 89
e 18 90
e 18 91
e 18 92
e 18 93
e 18 94
e 18 95
e 18 96
e 18 97
e 18 98
e 18 99
e 18 100
e 19 24
e 19 25
e 19 26
e 19 28
e 19 29
e 19 30
e 19 31
e 19 32
e 19 33
e 19 34
e 19 36
e 19 37
e 19 38
e 19 40
e 19 41
e 19 43
e 19 44
e 19 45
e 19 46
e 19 47
e 19 48
e 19 49
e 19 50
e 19 53
e 19 54
e 19 55
e 19 76
e 19 77
e 19 78
e 19 79
e 19 82
e 19 83
e 19 87
e 19 89
e 19 90
e 19 91
e 19 92
e 19 93
e 19 94
e 19 95
e 19 96
e 19 97
e 19 98
e 19 99
e 19 100
e 20 25
e 20 26
e 20 27
e 20 28
e 20 29
e 20 31
e 20 32
e 20 33
e 20 34
e 20 35
e 20 36
e 20 37
e 20 38
e 20 39
e 20 40
e 20 41
e 20 42
e 20 44
e 20 45
e 20 47
e 20 48
e 20 49
e 20 51
e 20 52
e 20 53
e 20 54
e 20 55
e 20 56
e 20 73
e 20 76
e 20 80
e 20 87
e 20 88
e 20 89
e 20 90
e 20 91
e 20 92
e 20 93
e 20 94
e 20 95
e 20 96
e 20 97
e 20 98
e 20 99
e 20 100
e 21 24
e 21 25
e 21 26
e 21 27
e 21 28
e 21 29
e 21 30
e 21 32
e 21 33
e 21 34
e 21 35
e 21 36
e 21 37
e 21 38
e 21 39
e 21 41
e 21 42
e 21 43
e 21 44
e 21 46
e 21 47
e 21 49
e 21 50
e 21 51
e 21 52
e 21 53
e 21 55
e 21 56
e 21 57
e 21 78
e 21 82
e 21 84
e 21 90
e 21 91
e 21 92
e 21 93
e 21 94
e 21 95
e 21 96
e 21 97
e 21 98
e 21 99
e 21 100
e 22 24
e 22 25
e 22 26
e 22 27
e 22 28
e 22 29
e 22 31
e 22 32
e 22 33
e 22 34
e 22 35
e 22 36
e 22 37
e 22 38
e 22 40
e 22 42
e 22 43
e 22 44
e 22 45
e 22 46
e 22 47
e 22 48
e 22 49
e 22 50
e 22 51
e 22 53
e 22 54
e 22 55
e 22 56
e 22 58
e 22 74
e 22 77
e 22 81
e 22 83
e 22 85
e 22 86
e 22 87
e 22 88
e 22 90
e 22 91
e 22 92
e 22 93
e 22 94
e 22 95
e 22 96
e 22 97
e 22 98
e 22 99
e 22 100
e 23 24
e 23 26
e 23 27
e 23 28
e 23 29
e 23 32
e 23 33
e 23 34
e 23 35
e 23 36
e 23 37
e 23 38
e 23 40
e 23 41
e 23 42
e 23 43
e 23 44
e 23 45
e 23 46
e 23 47
e 23 48
e 23 50
e 23 51
e 23 52
e 23 53
e 23 54
e 23 55
e 23 56
e 23 59
e 23 69
e 23 73
e 23 76
e 23 77
e 23 81
e 23 83
e 23 84
e 23 85
e 23 90
e 23 91
e 23 92
e 23 93
e 23 94
e 23 95
e 23 96
e 23 97
e 23 98
e 23 99
e 23 100
e 24 78
e 24 79
e 24 83
e 24 86
e 24 90
e 24 91
e 24 92
e 24 93
e 24 94
e 24 95
e 24 96
e 24 97
e 24 98
e 24 99
e 24 100
e 25 76
e 25 77
e 25 82
e 25 83
e 25 84
e 25 88
e 25 89
e 25 90
e 25 91
e 25 92
e 25 93
e 25 94
e 25 95
e 25 98
e 25 99
e 25 100
e 26 45
e 26 76
e 26 77
e 26 83
e 26 84
e 26 90
e 26 91
e 26 92
e 26 93
e 26 94
e 26 95
e 26 96
e 26 97
e 26 99
e 26 100
e 27 77
e 27 80
e 27 82
e 27 84
e 27 85
e 27 87
e 27 90
e 27 91
e 27 92
e 27 93
e 27 94
e 27 95
e 27 97
e 27 98
e 27 100
e 28 76
e 28 77
e 28 79
e 28 80
e 28 81
e 28 83
e 28 86
e 28 90
e 28 91
e 28 92
e 28 93
e 28 94
e 28 95
e 28 96
e 28 97
e 28 98
e 28 99
e 28 100
e 29 78
e 29 80
e 29 81
e 29 82
e 29 86
e 29 88
e 29 90
e 29 91
e 29 92
e 29 93
e 29 94
e 29 95
e 29 96
e 29 97
e 29 98
e 29 99
e 29 100
e 30 61
e 30 78
e 30 87
e 30 90
e 30 91
e 30 92
e 30 93
e 30 94
e 30 95
e 30 96
e 30 97
e 30 98
e 30 99
e 30 100
e 31 67
e 31 76
e 31 78
e 31 81
e 31 83
e 31 86
e 31 87
e 31 88
e 31 90
e 31 91
e 31 92
e 31 93
e 31 94
e 31 95
e 31 97
e 31 98
e 31 99
e 31 100
e 32 76
e 32 79
e 32 81
e 32 84
e 32 86
e 32 90
e 32 91
e 32 92
e 32 93
e 32 94
e 32 95
e 32 96
e 32 97
e 32 98
e 32 99
e 32 100
e 33 76
e 33 77
e 33 81
e 33 83
e 33 86
e 33 87
e 33 88
e 33 89
e 33 90
e 33 91
e 33 92
e 33 93
e 33 94
e 33 95
e 33 96
e 33 97
e 33 98
e 33 99
e 33 100
e 34 79
e 34 80
e 34 82
e 34 83
e 34 84
e 34 85
e 34 90
e 34 91
e 34 92
e 34 93
e 34 94
e 34 95
e 34 96
e 34 98
e 34 99
e 34 100
e 35 79
e 35 80
e 35 87
e 35 88
e 35 90
e 35 91
e 35 92
e 35 93
e 35 94
e 35 95
e 35 96
e 35 97
e 35 98
e 35 99
e 36 41
e 36 77
e 36 78
e 36 79
e 36 82
e 36 85
e 36 87
e 36 88
e 36 89
e 36 90
e 36 91
e 36 92
e 36 93
e 36 94
e 36 95
e 36 96
e 36 97
e 36 98
e 36 99
e 36 100
e 37 76
e 37 77
e 37 78
e 37 79
e 37 82
e 37 84
e 37 85
e 37 88
e 37 89
e 37 90
e 37 91
e 37 92
e 37 93
e 37 94
e 37 95
e 37 96
e 37 97
e 37 98
e 37 99
e 37 100
e 38 63
e 38 81
e 38 82
e 38 87
e 38 89
e 38 90
e 38 91
e 38 92
e 38 93
e 38 94
e 38 95
e 38 96
e 38 97
e 38 98
e 38 99
e 38 100
e 39 78
e 39 79
e 39 80
e 39 81
e 39 82
e 39 83
e 39 84
e 39 85
e 39 86
e 39 87
e 39 88
e 39 89
e 39 90
e 39 91
e 39 92
e 39 93
e 39 95
e 39 96
e 39 97
e 39 98
e 39 99
e 40 58
e 40 77
e 40 78
e 40 80
e 40 81
e 40 82
e 40 83
e 40 84
e 40 85
e 40 86
e 40 87
e 40 88
e 40 89
e 40 90
e 40 93
e 40 94
e 40 95
e 40 96
e 40 97
e 40 98
e 40 99
e 40 100
e 41 76
e 41 78
e 41 79
e 41 80
e 41 82
e 41 83
e 41 84
e 41 85
e 41 86
e 41 87
e 41 88
e 41 91
e 41 93
e 41 94
e 41 95
e 41 96
e 41 97
e 41 98
e 41 99
e 41 100
e 42 78
e 42 79
e 42 80
e 42 81
e 42 82
e 42 83
e 42 84
e 42 85
e 42 86
e 42 87
e 42 88
e 42 89
e 42 92
e 42 93
e 42 94
e 42 95
e 42 97
e 42 98
e 42 99
e 42 100
e 43 79
e 43 81
e 43 82
e 43 83
e 43 85
e 43 87
e 43 90
e 43 92
e 43 93
e 43 94
e 43 95
e 43 96
e 43 97
e 43 98
e 43 99
e 43 100
e 44 70
e 44 76
e 44 77
e 44 78
e 44 79
e 44 80
e 44 81
e 44 82
e 44 83
e 44 84
e 44 85
e 44 86
e 44 87
e 44 89
e 44 90
e 44 91
e 44 92
e 44 94
e 44 95
e 44 96
e 44 97
e 44 98
e 44 99
e 44 100
e 45 77
e 45 78
e 45 79
e 45 80
e 45 82
e 45 84
e 45 85
e 45 86
e 45 88
e 45 89
e 45 90
e 45 91
e 45 92
e 45 95
e 45 96
e 45 97
e 45 99
e 45 100
e 46 57
e 46 78
e 46 79
e 46 82
e 46 83
e 46 84
e 46 85
e 46 87
e 46 88
e 46 89
e 46 90
e 46 91
e 46 92
e 46 93
e 46 94
e 46 96
e 46 97
e 46 99
e 46 100
e 47 62
e 47 78
e 47 79
e 47 80
e 47 81
e 47 82
e 47 83
e 47 85
e 47 87
e 47 88
e 47 89
e 47 90
e 47 91
e 47 92
e 47 93
e 47 94
e 47 95
e 47 96
e 47 97
e 47 98
e 47 99
e 47 100
e 48 78
e 48 79
e 48 81
e 48 82
e 48 83
e 48 85
e 48 86
e 48 87
e 48 88
e 48 89
e 48 91
e 48 92
e 48 93
e 48 94
e 48 95
e 48 96
e 48 97
e 48 98
e 48 99
e 48 100
e 49 60
e 49 80
e 49 81
e 49 82
e 49 83
e 49 84
e 49 85
e 49 86
e 49 87
e 49 88
e 49 89
e 49 90
e 49 91
e 49 92
e 49 93
e 49 95
e 49 96
e 49 97
e 49 99
e 49 100
e 50 78
e 50 79
e 50 80
e 50 81
e 50 82
e 50 83
e 50 84
e 50 85
e 50 86
e 50 87
e 50 88
e 50 91
e 50 92
e 50 94
e 50 95
e 50 96
e 50 97
e 50 99
e 51 78
e 51 79
e 51 80
e 51 81
e 51 83
e 51 84
e 51 85
e 51 86
e 51 87
e 51 88
e 51 89
e 51 90
e 51 91
e 51 92
e 51 94
e 51 96
e 51 97
e 51 98
e 51 99
e 51 100
e 52 67
e 52 76
e 52 79
e 52 80
e 52 81
e 52 82
e 52 83
e 52 84
e 52 85
e 52 87
e 52 88
e 52 89
e 52 91
e 52 92
e 52 93
e 52 94
e 52 95
e 52 96
e 52 98
e 52 99
e 53 79
e 53 80
e 53 82
e 53 83
e 53 84
e 53 85
e 53 87
e 53 88
e 53 90
e 53 91
e 53 92
e 53 93
e 53 94
e 53 95
e 53 96
e 53 97
e 53 98
e 53 100
e 54 78
e 54 79
e 54 80
e 54 81
e 54 82
e 54 83
e 54 84
e 54 85
e 54 87
e 54 88
e 54 90
e 54 91
e 54 92
e 54 94
e 54 96
e 54 97
e 54 99
e 54 100
e 55 78
e 55 79
e 55 80
e 55 81
e 55 82
e 55 84
e 55 85
e 55 86
e 55 87
e 55 88
e 55 89
e 55 91
e 55 92
e 55 94
e 55 95
e 55 96
e 55 97
e 55 98
e 55 100
e 56 76
e 56 77
e 56 78
e 56 79
e 56 80
e 56 81
e 56 82
e 56 83
e 56 85
e 56 86
e 56 87
e 56 89
e 56 90
e 56 91
e 56 92
e 56 93
e 56 94
e 56 95
e 56 96
e 56 97
e 56 98
e 56 99
e 56 100
e 57 76
e 57 78
e 57 79
e 57 80
e 57 81
e 57 83
e 57 84
e 57 85
e 57 87
e 57 88
e 57 89
e 57 90
e 57 91
e 57 92
e 57 94
e 57 95
e 57 96
e 57 97
e 57 98
e 57 99
e 57 100
e 58 76
e 58 80
e 58 81
e 58 82
e 58 84
e 58 85
e 58 86
e 58 87
e 58 89
e 58 90
e 58 91
e 58 92
e 58 93
e 58 94
e 58 95
e 58 96
e 58 97
e 58 100
e 59 67
e 59 76
e 59 78
e 59 79
e 59 80
e 59 81
e 59 82
e 59 83
e 59 84
e 59 85
e 59 88
e 59 89
e 59 90
e 59 92
e 59 93
e 59 94
e 59 95
e 59 98
e 59 100
e 60 77
e 60 78
e 60 80
e 60 81
e 60 82
e 60 83
e 60 84
e 60 85
e 60 86
e 60 87
e 60 88
e 60 89
e 60 90
e 60 91
e 60 92
e 60 93
e 60 94
e 60 95
e 60 96
e 60 97
e 60 98
e 60 99
e 61 78
e 61 79
e 61 80
e 61 83
e 61 84
e 61 85
e 61 86
e 61 88
e 61 89
e 61 90
e 61 92
e 61 93
e 61 95
e 61 96
e 61 97
e 61 98
e 61 99
e 62 78
e 62 79
e 62 80
e 62 81
e 62 85
e 62 86
e 62 87
e 62 88
e 62 89
e 62 90
e 62 91
e 62 92
e 62 93
e 62 94
e 62 95
e 62 96
e 62 97
e 62 98
e 62 99
e 63 77
e 63 78
e 63 80
e 63 81
e 63 83
e 63 84
e 63 86
e 63 87
e 63 88
e 63 90
e 63 92
e 63 93
e 63 94
e 63 95
e 63 97
e 63 98
e 63 100
e 64 78
e 64 79
e 64 80
e 64 81
e 64 84
e 64 85
e 64 86
e 64 87
e 64 88
e 64 89
e 64 90
e 64 92
e 64 93
e 64 95
e 64 96
e 64 97
e 64 99
e 64 100
e 65 76
e 65 78
e 65 79
e 65 80
e 65 81
e 65 82
e 65 83
e 65 84
e 65 85
e 65 86
e 65 87
e 65 89
e 65 90
e 65 91
e 65 92
e 65 93
e 65 94
e 65 95
e 65 96
e 65 97
e 65 100
e 66 78
e 66 79
e 66 80
e 66 81
e 66 82
e 66 83
e 66 84
e 66 85
e 66 86
e 66 87
e 66 88
e 66 89
e 66 90
e 66 91
e 66 92
e 66 93
e 66 94
e 66 95
e 66 96
e 66 98
e 66 99
e 66 100
e 67 78
e 67 79
e 67 80
e 67 82
e 67 83
e 67 84
e 67 85
e 67 86
e 67 87
e 67 88
e 67 89
e 67 90
e 67 91
e 67 92
e 67 93
e 67 96
e 67 97
e 67 98
e 67 99
e 67 100
e 68 79
e 68 80
e 68 81
e 68 83
e 68 84
e 68 85
e 68 86
e 68 87
e 68 88
e 68 89
e 68 90
e 68 91
e 68 92
e 68 94
e 68 95
e 68 96
e 68 97
e 68 98
e 68 99
e 68 100
e 69 77
e 69 79
e 69 80
e 69 81
e 69 82
e 69 83
e 69 84
e 69 85
e 69 86
e 69 88
e 69 89
e 69 90
e 69 91
e 69 92
e 69 93
e 69 94
e 69 96
e 69 97
e 69 98
e 70 78
e 70 79
e 70 80
e 70 81
e 70 82
e 70 83
e 70 84
e 70 85
e 70 86
e 70 87
e 70 88
e 70 91
e 70 92
e 70 93
e 70 94
e 70 95
e 70 96
e 70 98
e 70 99
e 70 100
e 71 78
e 71 79
e 71 80
e 71 81
e 71 82
e 71 84
e 71 85
e 71 86
e 71 87
e 71 88
e 71 89
e 71 90
e 71 91
e 71 92
e 71 93
e 71 94
e 71 95
e 71 96
e 71 98
e 71 100
e 72 76
e 72 77
e 72 78
e 72 80
e 72 81
e 72 83
e 72 84
e 72 85
e 72 86
e 72 87
e 72 88
e 72 89
e 72 90
e 72 91
e 72 92
e 72 93
e 72 94
e 72 95
e 72 96
e 72 97
e 72 99
e 73 78
e 73 79
e 73 80
e 73 81
e 73 84
e 73 85
e 73 86
e 73 87
e 73 88
e 73 89
e 73 90
e 73 91
e 73 92
e 73 93
e 73 94
e 73 96
e 73 97
e 73 98
e 73 99
e 73 100
e 74 78
e 74 79
e 74 81
e 74 82
e 74 83
e 74 84
e 74 85
e 74 86
e 74 87
e 74 88
e 74 89
e 74 90
e 74 91
e 74 92
e 74 93
e 74 94
e 74 95
e 74 96
e 74 97
e 74 98
e 74 99
e 75 78
e 75 79
e 75 80
e 75 81
e 75 82
e 75 83
e 75 84
e 75 85
e 75 86
e 75 87
e 75 88
e 75 89
e 75 90
e 75 91
e 75 92
e 75 93
e 75 94
e 75 95
e 75 96
e 75 97
e 75 100
e 77 78
e 79 87
e 79 94
e 84 96
e 85 97
e 88 94
e 90 98
