MATILDA_Graphs/g0095.sol
SET_INDEX
122
3180
4861
6764
6870
7505
EOF
